ISTS is enabled.
Day	0	Optimize a model with 7566 rows, 72302 columns and 1178516 nonzeros
Variable types: 532 continuous, 71770 integer (68942 binary)
Coefficient statistics:
  Matrix range     [1e+00, 2e+02]
  Objective range  [8e-01, 2e+03]
  Bounds range     [1e+00, 1e+02]
  RHS range        [1e+00, 6e+03]
Found heuristic solution: objective 958968
Presolve removed 559 rows and 9495 columns
Presolve time: 3.74s
Presolved: 7007 rows, 62807 columns, 925459 nonzeros
Variable types: 0 continuous, 62807 integer (60015 binary)

Root relaxation: objective 8.699745e+05, 2639 iterations, 0.25 seconds

    Nodes    |    Current Node    |     Objective Bounds      |     Work
 Expl Unexpl |  Obj  Depth IntInf | Incumbent    BestBd   Gap | It/Node Time

     0     0 869974.494    0  242 958968.156 869974.494  9.28%     -    4s
H    0     0                    876024.49412 869974.494  0.69%     -    4s
H    0     0                    875974.49412 869974.494  0.68%     -    4s
H    0     0                    870191.65649 869974.494  0.02%     -    5s
     0     0 870074.989    0  219 870191.656 870074.989  0.01%     -    6s
     0     0 870074.989    0  222 870191.656 870074.989  0.01%     -    9s
     0     0 870087.083    0  137 870191.656 870087.083  0.01%     -    9s
     0     0 870126.049    0  225 870191.656 870126.049  0.01%     -    9s

Cutting planes:
  Gomory: 44
  Cover: 141
  Clique: 153
  MIR: 155

Explored 0 nodes (8331 simplex iterations) in 9.71 seconds
Thread count was 1 (of 16 available processors)

Solution count 4: 870192 875974 876024 958968 
Pool objective bound 870126

Optimal solution found (tolerance 1.00e-04)
Best objective 8.701916564863e+05, best bound 8.701260494960e+05, gap 0.0075%
	MIPObjVal:	870191.6564862594	runtime:	9.716819047927856	patientsNumber:	202	room Occupancy:	0.16	OR Occupancy:	0.15064803905066487
roomCost:	7510.0	genderPolicy:	0.0	transferCost:	500.0	delayCost:	90.0	overCrowdRisk:	1.0	overtime:	0.0	idleRoom:	105380.0	idleOR:	544300.0	eRoomIdle:	31436.580846178345	eORIdle:	180974.07564008102	roomU:	0.0	orU:	0.0
Day	1	Optimize a model with 7309 rows, 68919 columns and 1032485 nonzeros
Variable types: 513 continuous, 68406 integer (65679 binary)
Coefficient statistics:
  Matrix range     [1e+00, 2e+02]
  Objective range  [8e-01, 2e+03]
  Bounds range     [1e+00, 1e+02]
  RHS range        [1e+00, 6e+03]
Found heuristic solution: objective 881400
Presolve removed 560 rows and 8908 columns
Presolve time: 2.84s
Presolved: 6749 rows, 60011 columns, 811097 nonzeros
Variable types: 0 continuous, 60011 integer (57337 binary)

Root relaxation: objective 7.854695e+05, 2628 iterations, 0.20 seconds

    Nodes    |    Current Node    |     Objective Bounds      |     Work
 Expl Unexpl |  Obj  Depth IntInf | Incumbent    BestBd   Gap | It/Node Time

     0     0 785469.489    0  192 881399.560 785469.489  10.9%     -    3s
H    0     0                    790269.48930 785469.489  0.61%     -    3s
H    0     0                    790224.67017 785469.489  0.60%     -    3s
H    0     0                    785985.95663 785469.489  0.07%     -    4s
     0     0 785686.241    0   91 785985.957 785686.241  0.04%     -    5s
     0     0 785686.241    0  188 785985.957 785686.241  0.04%     -    8s
H    0     0                    785947.19117 785686.241  0.03%     -    8s
     0     0 785718.165    0  233 785947.191 785718.165  0.03%     -    9s
     0     0 785798.843    0  144 785947.191 785798.843  0.02%     -    9s
     0     0 785810.891    0  103 785947.191 785810.891  0.02%     -   10s
     0     1 785810.891    0  103 785947.191 785810.891  0.02%     -   11s
H    1     1                    785891.76716 785810.891  0.01%   183   11s

Cutting planes:
  Gomory: 30
  Cover: 58
  Clique: 106
  MIR: 14
  Flow cover: 43
  GUB cover: 3

Explored 5 nodes (10542 simplex iterations) in 13.31 seconds
Thread count was 1 (of 16 available processors)

Solution count 6: 785892 785947 785986 ... 881400
Pool objective bound 785813

Optimal solution found (tolerance 1.00e-04)
Best objective 7.858917671584e+05, best bound 7.858132025995e+05, gap 0.0100%
	MIPObjVal:	785891.7671584048	runtime:	13.308080911636353	patientsNumber:	208	room Occupancy:	0.19777777777777777	OR Occupancy:	0.24743309207204175
roomCost:	7590.0	genderPolicy:	0.0	transferCost:	0.0	delayCost:	130.0	overCrowdRisk:	5.0	overtime:	0.0	idleRoom:	96360.0	idleOR:	483150.0	eRoomIdle:	29342.963827340758	eORIdle:	169313.80333106403	roomU:	0.0	orU:	0.0
Day	2	Optimize a model with 7062 rows, 66548 columns and 897068 nonzeros
Variable types: 494 continuous, 66054 integer (63428 binary)
Coefficient statistics:
  Matrix range     [1e+00, 2e+02]
  Objective range  [7e-01, 2e+03]
  Bounds range     [1e+00, 1e+02]
  RHS range        [1e+00, 6e+03]
Found heuristic solution: objective 779818
Presolve removed 528 rows and 8550 columns
Presolve time: 2.27s
Presolved: 6534 rows, 57998 columns, 698484 nonzeros
Variable types: 0 continuous, 57998 integer (55412 binary)

Root relaxation: objective 6.901300e+05, 2565 iterations, 0.16 seconds

    Nodes    |    Current Node    |     Objective Bounds      |     Work
 Expl Unexpl |  Obj  Depth IntInf | Incumbent    BestBd   Gap | It/Node Time

     0     0 690130.041    0  176 779818.054 690130.041  11.5%     -    2s
H    0     0                    694530.04086 690130.041  0.63%     -    2s
H    0     0                    694485.23180 690130.041  0.63%     -    3s
H    0     0                    690376.64440 690130.041  0.04%     -    3s
     0     0 690272.677    0  102 690376.644 690272.677  0.02%     -    4s
     0     0 690272.677    0  145 690376.644 690272.677  0.02%     -    6s
     0     0 690272.677    0  195 690376.644 690272.677  0.02%     -    6s
     0     0 690299.811    0  104 690376.644 690299.811  0.01%     -    6s
     0     0 690318.032    0   95 690376.644 690318.032  0.01%     -    7s

Cutting planes:
  Gomory: 47
  Cover: 90
  Clique: 136
  MIR: 95
  Zero half: 2

Explored 0 nodes (7723 simplex iterations) in 7.27 seconds
Thread count was 1 (of 16 available processors)

Solution count 5: 690377 690377 694485 ... 779818
Pool objective bound 690318

Optimal solution found (tolerance 1.00e-04)
Best objective 6.903766443955e+05, best bound 6.903180320129e+05, gap 0.0085%
	MIPObjVal:	690376.6443954593	runtime:	7.2705559730529785	patientsNumber:	224	room Occupancy:	0.17555555555555555	OR Occupancy:	0.0
roomCost:	7580.0	genderPolicy:	50.0	transferCost:	0.0	delayCost:	125.0	overCrowdRisk:	5.0	overtime:	0.0	idleRoom:	87360.0	idleOR:	428700.0	eRoomIdle:	27333.94244648273	eORIdle:	139222.70194897652	roomU:	0.0	orU:	0.0
Day	3	Optimize a model with 6815 rows, 75843 columns and 1071134 nonzeros
Variable types: 475 continuous, 75368 integer (72843 binary)
Coefficient statistics:
  Matrix range     [1e+00, 2e+02]
  Objective range  [9e-01, 2e+03]
  Bounds range     [1e+00, 1e+02]
  RHS range        [1e+00, 6e+03]
Found heuristic solution: objective 800060
Presolve removed 498 rows and 10141 columns
Presolve time: 2.59s
Presolved: 6317 rows, 65702 columns, 826098 nonzeros
Variable types: 0 continuous, 65702 integer (63211 binary)

Root relaxation: objective 6.985665e+05, 2704 iterations, 0.17 seconds

    Nodes    |    Current Node    |     Objective Bounds      |     Work
 Expl Unexpl |  Obj  Depth IntInf | Incumbent    BestBd   Gap | It/Node Time

     0     0 698566.482    0  210 800059.858 698566.482  12.7%     -    3s
H    0     0                    707319.07767 698566.482  1.24%     -    3s
H    0     0                    703816.48241 698566.482  0.75%     -    3s
H    0     0                    699075.22286 698566.482  0.07%     -    4s
     0     0 698788.269    0  148 699075.223 698788.269  0.04%     -    4s
     0     0 698788.269    0  188 699075.223 698788.269  0.04%     -    8s
H    0     0                    698883.44290 698788.269  0.01%     -    8s
     0     0 698788.269    0  278 698883.443 698788.269  0.01%     -    8s
     0     0 698827.725    0   78 698883.443 698827.725  0.01%     -    9s

Cutting planes:
  Gomory: 29
  Cover: 107
  Clique: 160
  MIR: 120

Explored 0 nodes (8154 simplex iterations) in 9.13 seconds
Thread count was 1 (of 16 available processors)

Solution count 5: 698883 699075 703816 ... 800060
Pool objective bound 698828

Optimal solution found (tolerance 1.00e-04)
Best objective 6.988834428966e+05, best bound 6.988277248051e+05, gap 0.0080%
	MIPObjVal:	698883.4428965903	runtime:	9.128154039382935	patientsNumber:	240	room Occupancy:	0.15555555555555556	OR Occupancy:	0.0
roomCost:	8630.0	genderPolicy:	0.0	transferCost:	0.0	delayCost:	115.0	overCrowdRisk:	6.0	overtime:	0.0	idleRoom:	77500.0	idleOR:	418050.0	eRoomIdle:	26183.46408688536	eORIdle:	168398.97880970495	roomU:	0.0	orU:	0.0
Day	4	Optimize a model with 6567 rows, 81230 columns and 1162792 nonzeros
Variable types: 456 continuous, 80774 integer (78350 binary)
Coefficient statistics:
  Matrix range     [1e+00, 2e+02]
  Objective range  [1e+00, 2e+03]
  Bounds range     [1e+00, 1e+02]
  RHS range        [1e+00, 6e+03]
Found heuristic solution: objective 806263
Presolve removed 474 rows and 11038 columns
Presolve time: 2.77s
Presolved: 6093 rows, 70192 columns, 896584 nonzeros
Variable types: 0 continuous, 70192 integer (67797 binary)

Root relaxation: objective 6.976094e+05, 2589 iterations, 0.18 seconds

    Nodes    |    Current Node    |     Objective Bounds      |     Work
 Expl Unexpl |  Obj  Depth IntInf | Incumbent    BestBd   Gap | It/Node Time

     0     0 697609.407    0  224 806263.287 697609.407  13.5%     -    3s
H    0     0                    703209.40749 697609.407  0.80%     -    3s
H    0     0                    697936.08751 697609.407  0.05%     -    4s
     0     0 697795.302    0  123 697936.088 697795.302  0.02%     -    4s
     0     0 697795.302    0  190 697936.088 697795.302  0.02%     -    7s
H    0     0                    697914.24733 697795.302  0.02%     -    8s
     0     0 697798.502    0  223 697914.247 697798.502  0.02%     -    8s
     0     0 697855.331    0  160 697914.247 697855.331  0.01%     -    8s

Cutting planes:
  Gomory: 31
  Cover: 93
  Clique: 171
  MIR: 127

Explored 0 nodes (8345 simplex iterations) in 8.63 seconds
Thread count was 1 (of 16 available processors)

Solution count 4: 697914 697936 703209 806263 
Pool objective bound 697855

Optimal solution found (tolerance 1.00e-04)
Best objective 6.979142473256e+05, best bound 6.978553307379e+05, gap 0.0084%
	MIPObjVal:	697914.2473256269	runtime:	8.631155014038086	patientsNumber:	255	room Occupancy:	0.22666666666666666	OR Occupancy:	0.17589631375189363
roomCost:	9180.0	genderPolicy:	0.0	transferCost:	100.0	delayCost:	95.0	overCrowdRisk:	6.0	overtime:	0.0	idleRoom:	68280.0	idleOR:	412450.0	eRoomIdle:	24332.220162490175	eORIdle:	183471.02716313684	roomU:	0.0	orU:	0.0
Day	5	Optimize a model with 6308 rows, 72315 columns and 1028263 nonzeros
Variable types: 437 continuous, 71878 integer (69555 binary)
Coefficient statistics:
  Matrix range     [1e+00, 2e+02]
  Objective range  [1e+00, 2e+03]
  Bounds range     [1e+00, 1e+02]
  RHS range        [1e+00, 6e+03]
Found heuristic solution: objective 728730
Presolve removed 458 rows and 10936 columns
Presolve time: 2.78s
Presolved: 5850 rows, 61379 columns, 782225 nonzeros
Variable types: 0 continuous, 61379 integer (59087 binary)

Root relaxation: objective 6.147898e+05, 2495 iterations, 0.17 seconds

    Nodes    |    Current Node    |     Objective Bounds      |     Work
 Expl Unexpl |  Obj  Depth IntInf | Incumbent    BestBd   Gap | It/Node Time

     0     0 614789.829    0  186 728729.827 614789.829  15.6%     -    3s
H    0     0                    619439.82889 614789.829  0.75%     -    3s
H    0     0                    615127.13445 614789.829  0.05%     -    4s
     0     0 614978.301    0  180 615127.134 614978.301  0.02%     -    4s
     0     0 614978.301    0  164 615127.134 614978.301  0.02%     -    7s
     0     0 614983.131    0  190 615127.134 614983.131  0.02%     -    8s
     0     0 615011.477    0  167 615127.134 615011.477  0.02%     -    8s
     0     0 615066.004    0   93 615127.134 615066.004  0.01%     -    8s

Cutting planes:
  Gomory: 46
  Cover: 133
  Clique: 196
  MIR: 134
  Zero half: 2

Explored 0 nodes (8377 simplex iterations) in 8.89 seconds
Thread count was 1 (of 16 available processors)

Solution count 3: 615127 619440 728730 
Pool objective bound 615066

Optimal solution found (tolerance 1.00e-04)
Best objective 6.151271344518e+05, best bound 6.150660041809e+05, gap 0.0099%
	MIPObjVal:	615127.1344518242	runtime:	8.892793893814087	patientsNumber:	259	room Occupancy:	0.26222222222222225	OR Occupancy:	0.1582225214610335
roomCost:	10500.0	genderPolicy:	100.0	transferCost:	0.0	delayCost:	40.0	overCrowdRisk:	6.0	overtime:	0.0	idleRoom:	59060.0	idleOR:	350150.0	eRoomIdle:	22630.593084846452	eORIdle:	172640.54136697782	roomU:	0.0	orU:	0.0
Day	6	Optimize a model with 6057 rows, 69886 columns and 877129 nonzeros
Variable types: 418 continuous, 69468 integer (67246 binary)
Coefficient statistics:
  Matrix range     [1e+00, 2e+02]
  Objective range  [1e+00, 2e+03]
  Bounds range     [1e+00, 1e+02]
  RHS range        [1e+00, 6e+03]
Found heuristic solution: objective 635502
Presolve removed 439 rows and 10502 columns
Presolve time: 2.01s
Presolved: 5618 rows, 59384 columns, 652386 nonzeros
Variable types: 0 continuous, 59384 integer (57194 binary)

Root relaxation: objective 5.272364e+05, 2476 iterations, 0.13 seconds

    Nodes    |    Current Node    |     Objective Bounds      |     Work
 Expl Unexpl |  Obj  Depth IntInf | Incumbent    BestBd   Gap | It/Node Time

     0     0 527236.384    0  154 635502.269 527236.384  17.0%     -    2s
H    0     0                    532730.36492 527236.384  1.03%     -    2s
H    0     0                    531086.38397 527236.384  0.72%     -    2s
H    0     0                    527624.57748 527236.384  0.07%     -    3s
     0     0 527425.578    0  155 527624.577 527425.578  0.04%     -    4s
     0     0 527425.578    0  162 527624.577 527425.578  0.04%     -    6s
     0     0 527469.622    0  289 527624.577 527469.622  0.03%     -    6s
     0     0 527498.864    0  187 527624.577 527498.864  0.02%     -    7s
     0     0 527544.722    0  106 527624.577 527544.722  0.02%     -    7s
     0     2 527553.976    0  106 527624.577 527553.976  0.01%     -    8s
     5     6 527553.976    0  136 527624.577 527553.976  0.01%  32.0   10s

Cutting planes:
  Gomory: 18
  Cover: 39
  Clique: 68
  MIR: 15
  Flow cover: 33
  GUB cover: 4
  Zero half: 11

Explored 25 nodes (13927 simplex iterations) in 12.13 seconds
Thread count was 1 (of 16 available processors)

Solution count 4: 527625 531086 532730 635502 
Pool objective bound 527572

Optimal solution found (tolerance 1.00e-04)
Best objective 5.276245774813e+05, best bound 5.275720277734e+05, gap 0.0100%
	MIPObjVal:	527624.5774812999	runtime:	12.12816309928894	patientsNumber:	271	room Occupancy:	0.3111111111111111	OR Occupancy:	0.2592156202659485
roomCost:	10360.0	genderPolicy:	200.0	transferCost:	0.0	delayCost:	95.0	overCrowdRisk:	5.0	overtime:	0.0	idleRoom:	50940.0	idleOR:	290600.0	eRoomIdle:	20166.15501618817	eORIdle:	155258.42246511162	roomU:	0.0	orU:	0.0
Day	7	Optimize a model with 5804 rows, 64107 columns and 751023 nonzeros
Variable types: 399 continuous, 63708 integer (61587 binary)
Coefficient statistics:
  Matrix range     [1e+00, 2e+02]
  Objective range  [9e-01, 2e+03]
  Bounds range     [1e+00, 1e+02]
  RHS range        [1e+00, 6e+03]
Found heuristic solution: objective 550355
Presolve removed 427 rows and 9245 columns
Presolve time: 1.54s
Presolved: 5377 rows, 54862 columns, 570780 nonzeros
Variable types: 0 continuous, 54862 integer (52778 binary)

Root relaxation: objective 4.366778e+05, 2408 iterations, 0.13 seconds

    Nodes    |    Current Node    |     Objective Bounds      |     Work
 Expl Unexpl |  Obj  Depth IntInf | Incumbent    BestBd   Gap | It/Node Time

     0     0 436677.849    0  140 550354.986 436677.849  20.7%     -    1s
H    0     0                    446426.60077 436677.849  2.18%     -    2s
H    0     0                    440177.84866 436677.849  0.80%     -    2s
H    0     0                    437258.44794 436677.849  0.13%     -    3s
     0     0 436991.921    0  137 437258.448 436991.921  0.06%     -    3s
     0     0 436991.921    0  146 437258.448 436991.921  0.06%     -    5s
     0     0 436991.921    0  167 437258.448 436991.921  0.06%     -    6s
     0     0 437051.900    0  115 437258.448 437051.900  0.05%     -    6s
     0     0 437115.677    0  144 437258.448 437115.677  0.03%     -    6s
     0     0 437134.567    0  263 437258.448 437134.567  0.03%     -    6s
     0     0 437152.445    0  105 437258.448 437152.445  0.02%     -    7s
H    0     0                    437223.62597 437152.445  0.02%     -    7s
     0     1 437160.801    0  105 437223.626 437160.801  0.01%     -    8s

Cutting planes:
  Gomory: 25
  Cover: 41
  Clique: 20
  MIR: 13
  Flow cover: 22
  Zero half: 9

Explored 11 nodes (11228 simplex iterations) in 9.85 seconds
Thread count was 1 (of 16 available processors)

Solution count 5: 437224 437258 440178 ... 550355
Pool objective bound 437185

Optimal solution found (tolerance 1.00e-04)
Best objective 4.372236259738e+05, best bound 4.371845224892e+05, gap 0.0089%
	MIPObjVal:	437223.6259737762	runtime:	9.852849006652832	patientsNumber:	281	room Occupancy:	0.35333333333333333	OR Occupancy:	0.2726813667732705
roomCost:	10700.0	genderPolicy:	150.0	transferCost:	0.0	delayCost:	80.0	overCrowdRisk:	5.0	overtime:	0.0	idleRoom:	42820.0	idleOR:	236200.0	eRoomIdle:	17936.407375008228	eORIdle:	129332.2185987679	roomU:	0.0	orU:	0.0
Day	8	Optimize a model with 5558 rows, 65055 columns and 670798 nonzeros
Variable types: 380 continuous, 64675 integer (62655 binary)
Coefficient statistics:
  Matrix range     [1e+00, 2e+02]
  Objective range  [9e-01, 2e+03]
  Bounds range     [1e+00, 1e+02]
  RHS range        [1e+00, 6e+03]
Found heuristic solution: objective 465381
Presolve removed 407 rows and 8791 columns
Presolve time: 1.29s
Presolved: 5151 rows, 56264 columns, 511588 nonzeros
Variable types: 0 continuous, 56264 integer (54282 binary)

Root relaxation: objective 3.523360e+05, 2542 iterations, 0.13 seconds

    Nodes    |    Current Node    |     Objective Bounds      |     Work
 Expl Unexpl |  Obj  Depth IntInf | Incumbent    BestBd   Gap | It/Node Time

     0     0 352335.999    0  122 465381.303 352335.999  24.3%     -    1s
H    0     0                    360825.58603 352335.999  2.35%     -    1s
H    0     0                    355385.99886 352335.999  0.86%     -    1s
H    0     0                    352728.17821 352335.999  0.11%     -    2s
     0     0 352570.097    0   34 352728.178 352570.097  0.04%     -    2s
     0     0 352570.097    0  114 352728.178 352570.097  0.04%     -    4s
     0     0 352574.067    0   56 352728.178 352574.067  0.04%     -    4s
     0     0 352580.175    0   42 352728.178 352580.175  0.04%     -    4s
     0     0 352584.322    0    4 352728.178 352584.322  0.04%     -    4s
H    0     0                    352671.82231 352584.322  0.02%     -    5s
H    0     0                    352639.82231 352584.322  0.02%     -    5s
H    0     0                    352610.82231 352584.322  0.01%     -    5s

Cutting planes:
  Gomory: 37
  Cover: 93
  Clique: 185
  MIR: 88
  Zero half: 2

Explored 0 nodes (7830 simplex iterations) in 5.38 seconds
Thread count was 1 (of 16 available processors)

Solution count 7: 352611 352640 352672 ... 465381
Pool objective bound 352584

Optimal solution found (tolerance 1.00e-04)
Best objective 3.526108223064e+05, best bound 3.525843223064e+05, gap 0.0075%
	MIPObjVal:	352610.8223064147	runtime:	5.3831470012664795	patientsNumber:	298	room Occupancy:	0.38222222222222224	OR Occupancy:	0.2794142400269315
roomCost:	10230.0	genderPolicy:	0.0	transferCost:	0.0	delayCost:	100.0	overCrowdRisk:	6.0	overtime:	0.0	idleRoom:	35020.0	idleOR:	176800.0	eRoomIdle:	15693.4690980416	eORIdle:	114761.35320837308	roomU:	0.0	orU:	0.0
Day	9	Optimize a model with 5299 rows, 58574 columns and 499480 nonzeros
Variable types: 361 continuous, 58213 integer (56294 binary)
Coefficient statistics:
  Matrix range     [1e+00, 2e+02]
  Objective range  [9e-01, 2e+03]
  Bounds range     [1e+00, 1e+02]
  RHS range        [1e+00, 6e+03]
Found heuristic solution: objective 375564
Presolve removed 411 rows and 8131 columns
Presolve time: 1.01s
Presolved: 4888 rows, 50443 columns, 379172 nonzeros
Variable types: 0 continuous, 50443 integer (48583 binary)

Root relaxation: objective 2.672524e+05, 2240 iterations, 0.09 seconds

    Nodes    |    Current Node    |     Objective Bounds      |     Work
 Expl Unexpl |  Obj  Depth IntInf | Incumbent    BestBd   Gap | It/Node Time

     0     0 267252.440    0   78 375564.476 267252.440  28.8%     -    1s
H    0     0                    272253.25766 267252.440  1.84%     -    1s
H    0     0                    269202.43989 267252.440  0.72%     -    1s
H    0     0                    267413.92416 267252.440  0.06%     -    1s
     0     0 267377.127    0   30 267413.924 267377.127  0.01%     -    1s
     0     0 267377.127    0   68 267413.924 267377.127  0.01%     -    3s
     0     0 267378.091    0   62 267413.924 267378.091  0.01%     -    3s
     0     0 267398.091    0   22 267413.924 267398.091  0.01%     -    3s

Cutting planes:
  Gomory: 22
  Cover: 43
  Clique: 111
  MIR: 54

Explored 0 nodes (6421 simplex iterations) in 3.45 seconds
Thread count was 1 (of 16 available processors)

Solution count 5: 267414 267414 269202 ... 375564
Pool objective bound 267398

Optimal solution found (tolerance 1.00e-04)
Best objective 2.674139241630e+05, best bound 2.673980908297e+05, gap 0.0059%
	MIPObjVal:	267413.92416300287	runtime:	3.452003002166748	patientsNumber:	302	room Occupancy:	0.34	OR Occupancy:	0.0
roomCost:	9050.0	genderPolicy:	0.0	transferCost:	0.0	delayCost:	55.0	overCrowdRisk:	5.0	overtime:	0.0	idleRoom:	28640.0	idleOR:	120500.0	eRoomIdle:	12696.969584629576	eORIdle:	96466.95457837335	roomU:	0.0	orU:	0.0
Day	10	Optimize a model with 5047 rows, 65411 columns and 551470 nonzeros
Variable types: 342 continuous, 65069 integer (63251 binary)
Coefficient statistics:
  Matrix range     [1e+00, 2e+02]
  Objective range  [9e-01, 2e+03]
  Bounds range     [1e+00, 1e+02]
  RHS range        [1e+00, 6e+03]
Found heuristic solution: objective 374142
Presolve removed 356 rows and 9028 columns
Presolve time: 1.12s
Presolved: 4691 rows, 56383 columns, 433275 nonzeros
Variable types: 0 continuous, 56383 integer (54590 binary)

Root relaxation: objective 2.615902e+05, 2126 iterations, 0.11 seconds

    Nodes    |    Current Node    |     Objective Bounds      |     Work
 Expl Unexpl |  Obj  Depth IntInf | Incumbent    BestBd   Gap | It/Node Time

     0     0 261590.248    0   94 374142.458 261590.248  30.1%     -    1s
H    0     0                    263940.24757 261590.248  0.89%     -    1s
H    0     0                    261902.88471 261590.248  0.12%     -    1s
     0     0 261789.441    0   44 261902.885 261789.441  0.04%     -    2s
     0     0 261789.441    0   86 261902.885 261789.441  0.04%     -    3s
     0     0 261802.941    0   22 261902.885 261802.941  0.04%     -    4s
     0     0 261804.052    0   32 261902.885 261804.052  0.04%     -    4s
     0     0 261822.496    0   16 261902.885 261822.496  0.03%     -    4s
H    0     0                    261897.49625 261822.496  0.03%     -    4s
H    0     0                    261896.49625 261822.496  0.03%     -    4s
     0     2 261822.496    0    4 261896.496 261822.496  0.03%     -    4s
     2     3 261822.496    0   44 261896.496 261822.496  0.03%   118    5s

Cutting planes:
  Gomory: 20
  Cover: 24
  Implied bound: 1
  Clique: 38
  MIR: 13
  Flow cover: 23
  GUB cover: 2
  Zero half: 1

Explored 5 nodes (9088 simplex iterations) in 6.05 seconds
Thread count was 1 (of 16 available processors)

Solution count 6: 261896 261896 261897 ... 374142
Pool objective bound 261871

Optimal solution found (tolerance 1.00e-04)
Best objective 2.618964962466e+05, best bound 2.618714002299e+05, gap 0.0096%
	MIPObjVal:	261896.49624662718	runtime:	6.051050901412964	patientsNumber:	313	room Occupancy:	0.30666666666666664	OR Occupancy:	0.0
roomCost:	8120.0	genderPolicy:	100.0	transferCost:	0.0	delayCost:	45.0	overCrowdRisk:	4.0	overtime:	0.0	idleRoom:	21680.0	idleOR:	110350.0	eRoomIdle:	10367.698809998845	eORIdle:	111229.79743662835	roomU:	0.0	orU:	0.0
Day	11	Optimize a model with 4793 rows, 73336 columns and 585375 nonzeros
Variable types: 323 continuous, 73013 integer (71296 binary)
Coefficient statistics:
  Matrix range     [1e+00, 2e+02]
  Objective range  [8e-01, 2e+03]
  Bounds range     [1e+00, 1e+02]
  RHS range        [1e+00, 6e+03]
Found heuristic solution: objective 370207
Presolve removed 335 rows and 9459 columns
Presolve time: 1.20s
Presolved: 4458 rows, 63877 columns, 463536 nonzeros
Variable types: 0 continuous, 63877 integer (62183 binary)

Root relaxation: objective 2.535682e+05, 2289 iterations, 0.12 seconds

    Nodes    |    Current Node    |     Objective Bounds      |     Work
 Expl Unexpl |  Obj  Depth IntInf | Incumbent    BestBd   Gap | It/Node Time

     0     0 253568.233    0  102 370207.201 253568.233  31.5%     -    1s
H    0     0                    258963.83336 253568.233  2.08%     -    1s
H    0     0                    255803.13539 253568.233  0.87%     -    1s
H    0     0                    254024.84151 253568.233  0.18%     -    2s
     0     0 253816.725    0   93 254024.842 253816.725  0.08%     -    2s
     0     0 253820.262    0   63 254024.842 253820.262  0.08%     -    2s
     0     0 253839.262    0   30 254024.842 253839.262  0.07%     -    3s
     0     0 253839.262    0   98 254024.842 253839.262  0.07%     -    4s
     0     0 253839.262    0   78 254024.842 253839.262  0.07%     -    4s
     0     0 253839.262    0   71 254024.842 253839.262  0.07%     -    4s
     0     0 253841.596    0   65 254024.842 253841.596  0.07%     -    5s
     0     0 253841.596    0   73 254024.842 253841.596  0.07%     -    5s
     0     0 253844.379    0   54 254024.842 253844.379  0.07%     -    5s
     0     0 253844.379    0   45 254024.842 253844.379  0.07%     -    5s
     0     0 253848.182    0   58 254024.842 253848.182  0.07%     -    5s
     0     0 253853.421    0   50 254024.842 253853.421  0.07%     -    5s
     0     0 253858.907    0   58 254024.842 253858.907  0.07%     -    5s
     0     0 253860.129    0   56 254024.842 253860.129  0.06%     -    5s
     0     0 253860.812    0   80 254024.842 253860.812  0.06%     -    6s
H    0     0                    253978.42896 253860.812  0.05%     -    6s
     0     0 253860.873    0   86 253978.429 253860.873  0.05%     -    6s
     0     0 253861.046    0   66 253978.429 253861.046  0.05%     -    6s
H    0     0                    253919.68410 253861.046  0.02%     -    7s
     0     2 253871.846    0   66 253919.684 253871.846  0.02%     -    7s
H    3     3                    253918.68410 253871.846  0.02%   122    8s

Cutting planes:
  Gomory: 16
  Cover: 23
  Clique: 45
  MIR: 11
  Flow cover: 13
  GUB cover: 3
  Zero half: 2

Explored 11 nodes (10853 simplex iterations) in 8.72 seconds
Thread count was 1 (of 16 available processors)

Solution count 8: 253919 253920 253920 ... 370207
Pool objective bound 253894

Optimal solution found (tolerance 1.00e-04)
Best objective 2.539186840975e+05, best bound 2.538941327905e+05, gap 0.0097%
	MIPObjVal:	253918.68409746268	runtime:	8.722975015640259	patientsNumber:	322	room Occupancy:	0.3977777777777778	OR Occupancy:	0.23480895472142738
roomCost:	6870.0	genderPolicy:	150.0	transferCost:	0.0	delayCost:	50.0	overCrowdRisk:	5.0	overtime:	90.0	idleRoom:	14700.0	idleOR:	106650.0	eRoomIdle:	8305.776747768157	eORIdle:	117097.90734969455	roomU:	0.0	orU:	0.0
Day	12	Optimize a model with 4521 rows, 68126 columns and 473591 nonzeros
Variable types: 304 continuous, 67822 integer (66206 binary)
Coefficient statistics:
  Matrix range     [1e+00, 2e+02]
  Objective range  [6e-01, 2e+03]
  Bounds range     [1e+00, 1e+02]
  RHS range        [1e+00, 6e+03]
Found heuristic solution: objective 262925
Presolve removed 328 rows and 7760 columns
Presolve time: 0.93s
Presolved: 4193 rows, 60366 columns, 375619 nonzeros
Variable types: 0 continuous, 60366 integer (58787 binary)

Root relaxation: objective 1.740006e+05, 2005 iterations, 0.10 seconds

    Nodes    |    Current Node    |     Objective Bounds      |     Work
 Expl Unexpl |  Obj  Depth IntInf | Incumbent    BestBd   Gap | It/Node Time

     0     0 174000.632    0   66 262925.008 174000.632  33.8%     -    1s
H    0     0                    177532.86283 174000.632  1.99%     -    1s
H    0     0                    175586.42694 174000.632  0.90%     -    1s
H    0     0                    174305.42694 174000.632  0.17%     -    1s
     0     0 174201.235    0   73 174305.427 174201.235  0.06%     -    1s
     0     0 174201.235    0   67 174305.427 174201.235  0.06%     -    2s
     0     0 174237.230    0   63 174305.427 174237.230  0.04%     -    2s
     0     0 174237.230    0   64 174305.427 174237.230  0.04%     -    3s
     0     0 174237.230    0   69 174305.427 174237.230  0.04%     -    3s
     0     0 174237.230    0   58 174305.427 174237.230  0.04%     -    4s
     0     0 174244.649    0   40 174305.427 174244.649  0.03%     -    4s
     0     2 174254.533    0   22 174305.427 174254.533  0.03%     -    4s
     2     4 174254.533    0   63 174305.427 174254.533  0.03%   111    5s

Cutting planes:
  Gomory: 10
  Cover: 19
  Clique: 41
  MIR: 4
  Flow cover: 11

Explored 5 nodes (8159 simplex iterations) in 5.53 seconds
Thread count was 1 (of 16 available processors)

Solution count 6: 174305 174305 174305 ... 262925
Pool objective bound 174290

Optimal solution found (tolerance 1.00e-04)
Best objective 1.743054269440e+05, best bound 1.742901973888e+05, gap 0.0087%
	MIPObjVal:	174305.42694395068	runtime:	5.531666040420532	patientsNumber:	313	room Occupancy:	0.5066666666666667	OR Occupancy:	0.3677832014812321
roomCost:	5560.0	genderPolicy:	200.0	transferCost:	0.0	delayCost:	40.0	overCrowdRisk:	4.0	overtime:	135.0	idleRoom:	8540.0	idleOR:	55900.0	eRoomIdle:	6063.413575834007	eORIdle:	97863.01336811663	roomU:	0.0	orU:	0.0
Day	13	Optimize a model with 4220 rows, 44765 columns and 258387 nonzeros
Variable types: 285 continuous, 44480 integer (42965 binary)
Coefficient statistics:
  Matrix range     [1e+00, 2e+02]
  Objective range  [4e-01, 2e+03]
  Bounds range     [1e+00, 1e+02]
  RHS range        [1e+00, 6e+03]
Found heuristic solution: objective 155445
Presolve removed 354 rows and 5961 columns
Presolve time: 0.60s
Presolved: 3866 rows, 38804 columns, 190376 nonzeros
Variable types: 0 continuous, 38804 integer (37351 binary)

Root relaxation: objective 9.354488e+04, 1371 iterations, 0.05 seconds

    Nodes    |    Current Node    |     Objective Bounds      |     Work
 Expl Unexpl |  Obj  Depth IntInf | Incumbent    BestBd   Gap | It/Node Time

     0     0 93544.8836    0   34 155444.605 93544.8836  39.8%     -    0s
H    0     0                    99191.316633 93544.8836  5.69%     -    0s
H    0     0                    94330.858186 93544.8836  0.83%     -    0s
H    0     0                    93695.895018 93544.8836  0.16%     -    1s
     0     0 93659.9204    0   16 93695.8950 93659.9204  0.04%     -    1s
     0     0 infeasible    0      93695.8950 93695.8950  0.00%     -    1s

Cutting planes:
  Cover: 20
  Clique: 58
  MIR: 20
  GUB cover: 1

Explored 0 nodes (1758 simplex iterations) in 1.19 seconds
Thread count was 1 (of 16 available processors)

Solution count 4: 93695.9 94330.9 99191.3 155445 
Pool objective bound 93695.9

Optimal solution found (tolerance 1.00e-04)
Best objective 9.369589501828e+04, best bound 9.369589501828e+04, gap 0.0000%
	MIPObjVal:	93695.8950182784	runtime:	1.1934969425201416	patientsNumber:	275	room Occupancy:	0.5733333333333334	OR Occupancy:	0.7675475509173539
roomCost:	3160.0	genderPolicy:	100.0	transferCost:	0.0	delayCost:	85.0	overCrowdRisk:	2.0	overtime:	315.0	idleRoom:	3840.0	idleOR:	13800.0	eRoomIdle:	3348.274206929272	eORIdle:	69045.62081134916	roomU:	0.0	orU:	0.0
Violations:	0	Total ObjVal:	32893	Runtime:	0.0	Room occupancy ratio:	0.3885713	OR occupancy ratio:	0.29141414
The dynamic result in	./Results/FS3LowO/or_pas_dept4_short01_sol0.xml	violations:	0	total ObjVal:	32893	runtime:	122.192	average_patient_number:	268
